157 112 35 152 185 134 129 97 77 108 
149 44 120 66 114 90 118 88 40 59 75 
57 139 162 171 122 181 39 164 119 61 
41 153 100 98 62 148 52 
123 48 99 189 6 9 
150 158 143 113 146 130 25 116 200 
199 93 89 121 58 127 22 47 
18 92 8 16 76 31 103 101 183 42 
117 166 38 29 28 
81 184 19 142 194 70 174 107 
46 3 131 176 69 156 126 154 10 
145 13 20 34 177 65 105 
132 50 86 165 182 167 179 186 190 197 
73 173 14 80 109 138 83 74 198 
140 15 106 54 104 37 144 
1 26 64 160 33 96 
193 159 111 110 
85 12 163 95 82 128 
155 55 60 21 170 78 
168 161 136 17 
4 94 151 124 169 53 
188 72 68 133 178 23 102 45 
51 2 187 84 32 191 
196 30 175 11 
87 147 135 71 195 180 79 141 43 24 
7 63 67 137 36 5 125 56 172 49 91 27 
115 192 

